(set-logic QF_S)
(declare-fun var0 () String)
(declare-fun var1 () String)
(declare-fun var2 () String)
(declare-fun var3 () Int)
(declare-fun var4 () Int)
(declare-fun var5 () Bool)
(declare-fun var6 () String)
(declare-fun var7 () Int)
(declare-fun var8 () Int)
(assert (str.prefixof (str.replace var0 var1 "") (str.substr var2 var3 var4)))
(assert (not (not var5)))
(assert (>= (str.len (str.at var6 var7)) (str.len var1)))
(assert (> (str.indexof var2 var6 var8) (str.len var0)))
(check-sat)